num_offers = 35;
num_halls = 10;
start=[17,11,51,60,14,70,27,20,56,44,48,14,30,6,18,2,24,24,16,57,57,17,71,16,39,56,57,29,57,19,21,49,24,69,40];
end=[67,35,86,93,95,71,90,42,97,99,64,67,60,37,79,57,55,40,60,73,90,38,73,77,81,58,98,32,58,23,54,73,90,90,78];
price=[3199,815,3377,656,1601,135,786,783,3415,3352,205,4434,512,969,710,2681,3036,1563,2146,176,1561,994,151,3537,2745,108,1228,265,43,235,634,387,1616,1274,1908];
requirement=[393,239,615,397,330,658,707,657,380,270,606,578,748,332,417,977,574,441,455,445,441,433,590,255,540,709,570,672,284,575,447,768,668,270,918];
capacity=[381,783,508,679,474,632,671,785,678,536];
